COMMENT: 6 teste
DIMENSION: 6
EDGE_WEIGHT_TYPE: EXPLICIT
EDGE_WEIGHT_FORMAT: FULL_MATRIX 
EDGE_WEIGHT_SECTION   
0 2 3 5 7 11
2 0 13 17 19 23
3 13 0 29 31 37
5 17 29 0 41 43
7 19 31 41 0 47
11 23 37 43 47 0
EOF